808004
769030
360119
676519
666927
790804
271404
491492
501488
166202
135983
648659
847957
514869
419763
473509
120348
830826
912851
979170
128825
42626
82427
447054
378257
535105
87900
69978
702274
176235
657537
386995
938543
877693
523726
484452
886531
23164
923919
545659
469248
89044
516177
107946
369674
664071
826422
57969
964244
715482
15257
418151
437528
8584
967130
419667
782932
967501
875150
216015
52951
91827
998737
690742
206982
847134
367371
552313
158062
478804
337409
860155
263905
353106
873139
455803
821082
67148
634451
18400
101619
768851
557458
461412
270452
424195
392292
731632
4683
495626
580637
100962
569198
61197
744673
310661
682212
278975
817177
261771
